32	10
14	13	19	11	20	12	18	17	14	12
0	0	0	0	0	0	0	0	0	0	0	11	2	3	4	5	6	7	10	15	17	20	21
1	14	0	7	5	0	0	1	1	4	0	4	11	14	19	29
2	0	0	1	1	0	5	0	3	3	1	3	8	19	29
7	0	4	14	9	1	0	0	0	1	1	3	8	9	27
10	0	1	3	0	1	11	0	1	0	1	2	8	29
5	1	0	1	1	0	2	7	2	0	0	3	11	19	29
4	6	1	19	7	0	0	6	0	2	0	3	11	19	29
5	0	0	0	0	6	9	1	1	6	1	3	13	14	30
7	0	1	4	5	1	0	1	0	0	1	3	13	28	29
3	4	0	11	4	6	1	1	0	0	0	2	12	28
2	9	0	0	1	0	1	2	2	0	2	8	22	23	24	25	27	28	30	31
8	0	1	0	0	1	0	1	1	1	1	1	13
9	0	3	12	1	5	0	5	7	0	0	2	16	25
9	11	1	0	0	8	0	1	1	1	0	2	16	25
10	7	0	0	3	8	0	6	0	1	1	4	18	24	26	27
6	4	0	7	1	0	0	0	1	1	1	3	18	24	26
9	1	0	11	0	1	5	0	0	2	1	3	23	24	25
5	4	3	0	0	14	6	0	1	0	1	2	22	23
2	0	4	13	8	11	1	0	0	1	0	2	27	28
3	1	9	0	4	0	0	0	4	1	6	2	22	27
7	6	1	0	5	0	3	7	0	0	1	1	29
4	6	1	19	0	7	1	0	0	1	0	1	32
7	10	1	0	0	1	1	1	1	0	0	1	32
4	9	1	0	4	1	0	1	0	1	0	1	32
1	0	1	9	4	5	1	0	1	0	0	1	32
4	1	1	18	0	0	3	0	1	0	1	1	32
3	0	0	8	0	12	1	1	0	1	1	1	32
8	8	1	0	1	0	0	0	7	1	2	1	32
2	1	0	0	0	0	6	1	1	1	1	1	32
1	0	5	14	0	0	3	1	1	1	0	1	32
7	0	0	10	3	1	5	1	0	0	2	1	32
0	0	0	0	0	0	0	0	0	0	0	0
